row=6;
column=6;
Board=[|2,6,5,3,4,1|1,5,2,4,6,3|4,3,1,5,2,6|5,1,4,6,3,2|6,4,3,2,1,5|3,2,6,1,5,4|];
horizontal=[|0,1,1,0,1|0,1,0,0,1|1,1,0,1,0|1,0,0,1,1|1,1,1,1,0|1,0,1,0,1|];
vertical=[|1,1,1,0,0,0|0,1,1,0,1,0|0,1,0,0,0,1|0,0,1,1,1,0|1,1,0,1,0,1|];
